3 
4  47 
5  09 34 54 
6  13 27 42 56 
7  12 27 42 57 
8  12 27 42 56 
9  11 26 41 56 
10  11 26 41 56 
11  11 26 41 56 
12  11 26 41 57 
13  12 27 42 57 
14  12 27 43 58 
15  13 28 43 58 
16  13 28 43 58 
17  13 28 43 58 
18  13 28 43 58 
19  13 28 43 58 
20  14 28 43 58 
21  13 28 43 
22  00 14 30 54 
23 
0 
